12 16

16 10 10 15 14 2 5 15 1 14
16 12 15 6 13 8 10 2
10 15 9 15 13 11 5 2 3 5
6 9 4 7 2 6 10 9
2 11 15 12 16 8 6 2
3 10 13 6 9 7 10 8 2 12
1 6 6 11 10 13 13 11 8 12
6 12 8 9 7 3 13 12
14 13 10 15 1 5 15 13
15 15 1 7 6 11 12 13
3 2 11 10 4 15 12 5 14 3 13 8
13 11 8 4 15 9 6 12 4 15
